(set-logic QF_S)
(declare-fun var0 () String)
(declare-fun var1 () String)
(declare-fun var2 () String)
(declare-fun var3 () String)
(declare-fun var4 () Int)
(declare-fun var5 () Int)
(declare-fun var6 () Int)
(assert (< (str.len (str.replace var0 var1 var2)) (str.to.int var3)))
(assert (<= var4 var5))
(assert (> (str.indexof var3 "" var6) (str.len var1)))
(assert (>= (str.len (str.replace var1 var2 var3)) (str.indexof var0 var1 66)))
(check-sat)